benchmarks/bfuzz0/36630763122143191717027381368428450.smt2
(set-logic QF_FP)
(declare-const x0 (_ FloatingPoint 11 53))
(declare-const x1 (_ FloatingPoint 11 53))
(declare-const x2 (_ FloatingPoint 11 53))
(declare-const x3 (_ FloatingPoint 11 53))
(declare-const x4 (_ FloatingPoint 11 53))
(declare-const x5 (_ FloatingPoint 11 53))
(declare-const x6 (_ FloatingPoint 11 53))
(declare-const x7 (_ FloatingPoint 11 53))
(declare-const x8 (_ FloatingPoint 11 53))
(declare-const x9 (_ FloatingPoint 11 53))
(declare-const x10 (_ FloatingPoint 11 53))
(declare-const x11 (_ FloatingPoint 11 53))
(declare-const x12 (_ FloatingPoint 11 53))
(assert (fp.geq (fp.sub RNE (fp.mul RNE (fp.div RNE x1 x5) (fp.sub RNE x3 x11)) (fp.add RNE (fp.mul RNE x4 x3) (fp.mul RNE x4 x10))) (fp.sub RNE (fp.add RNE (fp.div RNE x10 x1) (fp.mul RNE x4 x8)) (fp.neg (fp.mul RNE x10 x2)))))
(assert (fp.geq (fp.div RNE (fp.mul RNE (fp.mul RNE x0 x12) (fp.add RNE x0 x9)) (fp.div RNE (fp.neg x7) (fp.neg x9))) (fp.add RNE (fp.neg (fp.add RNE x5 x11)) (fp.sub RNE (fp.div RNE x7 x1) (fp.mul RNE x10 x6)))))
(check-sat)
