db/data/36630763122143191717027381368428450.z3.out
-------------------
2500.116236340
